100
9 0
11 0
36 1
24 4
5 1
25 4
1 3
42 4
12 0
7 1
20 3
16 3
12 2
2 3
10 4
7 0
0 4
1 4
37 4
21 3
5 0
13 0
34 4
15 4
29 2
29 3
31 0
14 3
0 0
43 2
19 0
28 0
16 4
6 2
6 1
27 4
24 0
24 3
18 1
39 4
41 2
32 0
22 0
32 4
14 0
12 1
23 4
5 4
22 4
19 1
14 1
21 0
11 3
6 4
2 4
36 3
33 0
3 0
25 0
36 4
23 3
9 4
33 4
32 3
28 1
41 0
28 4
30 3
7 3
29 0
5 3
4 4
18 0
29 4
32 1
38 4
3 4
37 0
11 1
3 3
27 0
42 0
20 0
41 1
1 0
34 0
21 2
18 4
11 2
43 3
31 4
10 0
30 4
6 0
25 3
9 3
24 1
30 0
12 3
33 1

